letting n =  10
letting blocks =  [[1, 3], [1, 4], [1, 7], [2, 1], [2, 2], [2, 8], [3, 4], [3, 7], [4, 10], [5, 4], [6, 1], [6, 3], [7, 8], [7, 10], [8, 1], [8, 2], [8, 3], [8, 6], [8, 8], [8, 9], [9, 1], [9, 3], [9, 9], [9, 10], [10, 2], [10, 6], [10, 9], [10, 10]]
